asp/input/in_40_20_9_1.lp
#const n = 40.
#const k = 20.
#const h = 9.
tile(1,7,8).
tile(2,16,16).
tile(3,1,10).
tile(4,13,17).
tile(5,20,13).
tile(6,2,15).
tile(7,11,6).
tile(8,4,8).
tile(9,5,17).
tile(10,3,3).
tile(11,6,13).
tile(12,14,12).
tile(13,6,18).
tile(14,15,10).
tile(15,19,13).
tile(16,5,6).
tile(17,10,11).
tile(18,18,7).
tile(19,19,13).
tile(20,16,4).
tile(21,4,3).
tile(22,17,9).
tile(23,10,18).
tile(24,20,8).
tile(25,11,7).
tile(26,10,5).
tile(27,5,12).
tile(28,20,3).
tile(29,8,10).
tile(30,8,3).
tile(31,18,4).
tile(32,5,15).
tile(33,15,2).
tile(34,5,11).
tile(35,14,15).
tile(36,15,7).
tile(37,9,1).
tile(38,16,17).
tile(39,18,2).
tile(40,14,5).
