instances/in_40_20_9_1.dzn
n = 40;
k = 20;
h = 9;
tiles = array2d(1..n, 1..2,
[ 7,8
, 16,16
, 1,10
, 13,17
, 20,13
, 2,15
, 11,6
, 4,8
, 5,17
, 3,3
, 6,13
, 14,12
, 6,18
, 15,10
, 19,13
, 5,6
, 10,11
, 18,7
, 19,13
, 16,4
, 4,3
, 17,9
, 10,18
, 20,8
, 11,7
, 10,5
, 5,12
, 20,3
, 8,10
, 8,3
, 18,4
, 5,15
, 15,2
, 5,11
, 14,15
, 15,7
, 9,1
, 16,17
, 18,2
, 14,5
]);